api_lp/doRefactorISR_c0.lp
Maximize

27.5 b0 + 22.5 b1 + 45.5 b2 + 6 b3 + 8 b4 + 10 b5 + 23.5 b6 + 6 b7 + 8 b8 + 10 b9 + 54.5 b10 + 6 b11 + 8 b12 + 10 b13 + 53.5 b14 + 36.0 b15 + 521.0 b16 + 82.5 b17 + 305.5 b18.v0 + 305.5 b18.v1 + 131.0 b19 + 37.0 b20.v0 + 35.0 b20.v1 + 6 b21 + 8 b22 + 10 b23 + 70.0 b24 + 6 b25 + 8 b26 + 10 b27 + 266.0 b28 + 50.5 b29 + 18.5 b30.v0 + 16.5 b30.v1 + 8 b31 + 10 b32


Subject to

\ === tcfg constraints ===
dSta_0 = 1
b0 - dSta_0 = 0
b0 - d0_1 = 0
b1 - d0_1 = 0
b1 - d1_2 = 0
b2 - d1_2 = 0
b2 - d2_6 - d2_3 = 0
b3 - d2_3 = 0
b3 - d3_4 = 0
b4 - d3_4 = 0
b4 - d4_5 = 0
b5 - d4_5 = 0
b6 - d2_6 = 0
b6 - d6_10 - d6_7 = 0
b7 - d6_7 = 0
b7 - d7_8 = 0
b8 - d7_8 = 0
b8 - d8_9 = 0
b9 - d8_9 = 0
b10 - d6_10 = 0
b10 - d10_14 - d10_11 = 0
b11 - d10_11 = 0
b11 - d11_12 = 0
b12 - d11_12 = 0
b12 - d12_13 = 0
b13 - d12_13 = 0
b14 - d10_14 = 0
b14 - d14_24 - d14_15 = 0
b15 - d14_15 = 0
b15 - d15_16 = 0
b16 - d15_16 = 0
b16 - d16_18 - d16_17 = 0
b17 - d16_17 = 0
b17 - d17_18 = 0
b18 - d16_18 - d17_18 = 0
b18 - d18_20 - d18_19 = 0
b19 - d18_19 = 0
b19 - d19_20 = 0
b20 - d18_20 - d19_20 = 0
b20 - d20_21 = 0
b21 - d20_21 = 0
b21 - d21_22 = 0
b22 - d21_22 = 0
b22 - d22_23 = 0
b23 - d22_23 = 0
b24 - d14_24 = 0
b24 - d24_28 - d24_25 = 0
b25 - d24_25 = 0
b25 - d25_26 = 0
b26 - d25_26 = 0
b26 - d26_27 = 0
b27 - d26_27 = 0
b28 - d24_28 = 0
b28 - d28_30 - d28_29 = 0
b29 - d28_29 = 0
b29 - d29_30 = 0
b30 - d28_30 - d29_30 = 0
b30 - d30_31 = 0
b31 - d30_31 = 0
b31 - d31_32 = 0
b32 - d31_32 = 0


\ === header constraints ===



\ === context constraints ===
b18 - b18.v0 - b18.v1 = 0
b18.v0 - d16_18 = 0
b18.v1 - d17_18 = 0
b20 - b20.v0 - b20.v1 = 0
b20.v0 - d18_20 = 0
b20.v1 - d19_20 = 0
b30 - b30.v0 - b30.v1 = 0
b30.v0 - d28_30 = 0
b30.v1 - d29_30 = 0


\ === inst cache constraints ===



\ === data cache constraints ===



Generals


b0
b1
b2
b3
b4
b5
b6
b7
b8
b9
b10
b11
b12
b13
b14
b15
b16
b17
b18
b18.v0
b18.v1
b19
b20
b20.v0
b20.v1
b21
b22
b23
b24
b25
b26
b27
b28
b29
b30
b30.v0
b30.v1
b31
b32
d0_1
d1_2
d2_3
d2_6
d3_4
d4_5
d6_7
d6_10
d7_8
d8_9
d10_11
d10_14
d11_12
d12_13
d14_15
d14_24
d15_16
d16_17
d16_18
d17_18
d18_19
d18_20
d19_20
d20_21
d21_22
d22_23
d24_25
d24_28
d25_26
d26_27
d28_29
d28_30
d29_30
d30_31
d31_32
dSta_0


End
\ total cons: 79    total vars: 75
